========================================================== 
File name: C:\DEGR\assets\definitions\MSRCPSP_Gen\100_40_64_5_B.def
Creation date: Wed May 03 10:39:24 CEST 2023
Website: http://imopse.ii.pwr.edu.pl/ 
Reference: 
Myszkowski P. B., Skowronski M. E., Olech L., Oslizlo K., 
Hybrid Ant Colony Optimization in solving Multi-Skill Resource-Constrained Project Scheduling Problem, 
Soft Computing, DOI: DOI 10.1007/s00500-014-1455-x 
========================================================== 
General characteristics: 
Tasks: 100
Resources: 40
Precedence relations: 64
Number of skill types: 5
========================================================== 
ResourceID 	 Salary 	 Skills 
1	 	 	45.2	 	 Q3: 0 	 
2	 	 	87.4	 	 Q3: 0 	  Q0: 2 	  Q4: 2 	 
3	 	 	83.9	 	 Q2: 2 	  Q1: 3 	 
4	 	 	11.3	 	 Q2: 1 	  Q0: 0 	  Q4: 2 	  Q1: 0 	 
5	 	 	18.6	 	 Q1: 3 	 
6	 	 	70.8	 	 Q3: 1 	  Q1: 3 	  Q2: 1 	 
7	 	 	72.1	 	 Q0: 2 	  Q4: 3 	  Q1: 3 	 
8	 	 	27.5	 	 Q3: 2 	  Q2: 0 	  Q1: 1 	  Q0: 3 	 
9	 	 	68.2	 	 Q0: 3 	  Q3: 0 	 
10	 	 	50.7	 	 Q3: 2 	 
11	 	 	63.8	 	 Q3: 0 	 
12	 	 	85.0	 	 Q4: 2 	 
13	 	 	40.2	 	 Q4: 2 	 
14	 	 	67.0	 	 Q2: 2 	 
15	 	 	24.2	 	 Q3: 2 	  Q1: 1 	  Q4: 0 	 
16	 	 	87.4	 	 Q2: 0 	  Q0: 2 	  Q4: 3 	  Q3: 2 	 
17	 	 	19.4	 	 Q2: 0 	  Q4: 2 	 
18	 	 	72.2	 	 Q0: 3 	  Q4: 1 	 
19	 	 	82.8	 	 Q3: 1 	  Q1: 3 	 
20	 	 	78.1	 	 Q3: 1 	 
21	 	 	93.0	 	 Q0: 3 	  Q3: 1 	  Q4: 3 	  Q2: 3 	 
22	 	 	18.9	 	 Q1: 2 	  Q2: 3 	 
23	 	 	22.8	 	 Q3: 2 	  Q1: 3 	  Q2: 0 	  Q0: 3 	 
24	 	 	87.6	 	 Q0: 2 	  Q1: 1 	  Q4: 1 	  Q3: 2 	 
25	 	 	28.3	 	 Q3: 1 	  Q0: 1 	  Q4: 2 	 
26	 	 	60.3	 	 Q2: 2 	 
27	 	 	35.8	 	 Q2: 3 	 
28	 	 	55.2	 	 Q3: 2 	  Q2: 0 	  Q4: 2 	  Q1: 2 	 
29	 	 	63.0	 	 Q0: 0 	  Q2: 1 	  Q3: 1 	  Q1: 1 	 
30	 	 	71.4	 	 Q2: 2 	  Q3: 2 	 
31	 	 	48.0	 	 Q4: 3 	 
32	 	 	40.8	 	 Q4: 2 	  Q2: 3 	 
33	 	 	46.1	 	 Q2: 2 	  Q3: 0 	  Q1: 3 	  Q0: 3 	 
34	 	 	40.5	 	 Q1: 0 	 
35	 	 	12.4	 	 Q3: 0 	  Q0: 1 	  Q1: 1 	  Q2: 1 	 
36	 	 	78.3	 	 Q3: 0 	  Q4: 3 	 
37	 	 	42.0	 	 Q2: 1 	 
38	 	 	13.1	 	 Q2: 3 	 
39	 	 	40.8	 	 Q1: 2 	 
40	 	 	20.2	 	 Q0: 3 	  Q4: 2 	 
========================================================== 
TaskID 	 Duration 	 Skill 	 Predecessor IDs 
1	9	Q4:	0
2	30	Q2:	3
3	16	Q3:	2
4	26	Q3:	0
5	28	Q3:	0
6	32	Q0:	0
7	15	Q1:	0
8	35	Q0:	3
9	10	Q4:	2
10	10	Q2:	0
11	25	Q2:	3	5
12	14	Q2:	3
13	19	Q3:	0
14	14	Q1:	3
15	16	Q2:	2
16	15	Q0:	2	6
17	20	Q2:	1	10
18	37	Q0:	1
19	15	Q4:	0
20	17	Q1:	0	5
21	31	Q4:	1
22	34	Q0:	2
23	18	Q0:	3
24	11	Q2:	2	13
25	22	Q4:	3	21
26	19	Q1:	3	21
27	10	Q4:	1	24
28	32	Q2:	1
29	32	Q2:	3
30	19	Q0:	3
31	37	Q2:	2	11
32	30	Q1:	2
33	9	Q3:	0	27
34	23	Q1:	3	7
35	12	Q4:	2	1	15
36	9	Q0:	3
37	26	Q0:	0
38	24	Q1:	1
39	12	Q1:	1
40	33	Q0:	3
41	13	Q3:	2	27
42	29	Q1:	0	23
43	9	Q4:	2
44	35	Q2:	3
45	33	Q1:	0
46	37	Q2:	2	33
47	21	Q1:	0	16
48	21	Q3:	0
49	27	Q2:	2
50	36	Q4:	0	17
51	22	Q3:	1
52	17	Q1:	3	45
53	22	Q2:	0	35
54	30	Q4:	1
55	29	Q4:	1
56	13	Q4:	1
57	30	Q2:	3
58	37	Q4:	2
59	19	Q0:	1	44
60	17	Q1:	3	23	45	10
61	17	Q1:	1	5
62	31	Q1:	2
63	25	Q0:	2
64	18	Q0:	2
65	17	Q0:	2	10	32
66	35	Q2:	1	10
67	35	Q2:	0	37
68	34	Q1:	3	57	53
69	11	Q2:	0
70	40	Q1:	1	47
71	37	Q1:	0	47
72	39	Q1:	2
73	18	Q3:	1	34	48	19
74	10	Q1:	2
75	29	Q0:	1
76	20	Q0:	3	59
77	26	Q0:	0	32	2
78	32	Q4:	3	12
79	19	Q0:	1	54
80	40	Q0:	1
81	34	Q0:	2
82	24	Q0:	3	71
83	23	Q2:	1
84	13	Q1:	2
85	31	Q1:	0	18
86	34	Q0:	1
87	25	Q1:	3	38	31
88	27	Q4:	1	47
89	29	Q2:	0	41	2
90	9	Q1:	3	64
91	38	Q0:	0
92	10	Q2:	0	19
93	29	Q2:	2
94	29	Q0:	2	14	43	56
95	10	Q1:	0	16
96	27	Q3:	2	46	18	82
97	37	Q3:	1	59
98	13	Q4:	3
99	38	Q0:	1	13	44
100	10	Q1:	0	40	61	96	88
========================================================== 